c A SAT instance generated from a 3-CNF formula that had 21 clauses and 7 variables
p cnf 7 21
-1 -4 5 0
-1 -4 7 0
-3 -2 7 0
-4 2 -1 0
-5 -6 -7 0
-6 2 3 0
3 -5 6 0
-6 -1 2 0
-7 -5 3 0
-1 6 7 0
-1 -5 7 0
7 -1 -6 0
-1 -3 2 0
2 -1 -3 0
-4 7 5 0
1 -4 5 0
7 5 6 0
-6 -2 7 0
7 1 -3 0
2 -4 5 0
-1 -3 -5 0
